c This Formular is generated by mcnf
c
c    horn? no 
c    forced? no 
c    mixed sat? no 
c    clause length = 3 
c
p cnf 20  91 
 16 6 -12 0
9 16 5 0
14 20 -7 0
-10 -9 20 0
20 -1 -14 0
-5 -9 -18 0
-12 7 -14 0
17 3 15 0
-16 12 10 0
15 3 8 0
-20 8 9 0
16 -15 13 0
-4 -8 5 0
20 7 19 0
17 16 4 0
-5 -3 -14 0
-20 15 12 0
-14 8 11 0
5 -6 8 0
5 -12 4 0
15 -20 11 0
5 12 -17 0
-17 16 -10 0
20 8 18 0
-8 15 -10 0
-11 10 -7 0
-4 -14 1 0
19 14 5 0
-18 -8 -13 0
1 -19 -10 0
-6 4 -9 0
8 6 5 0
17 -4 15 0
-7 8 11 0
15 -4 -20 0
-4 -19 -18 0
3 18 5 0
8 3 14 0
-5 9 -12 0
-17 3 -18 0
10 -9 8 0
%
0

48 57 29 100 96 15 26 81 77 7 80 97 61 73 84 6 72 53 25 38
